(set-info :origin "SVCOMP13 benchmarks generated by Arie Gurfinkel")
(set-info :status unsat)
(set-logic HORN)
(declare-fun cp-rel-entry () Bool)
(declare-fun cp-rel-bb2.i.i43.i.i () Bool)
(declare-fun cp-rel-bb1.i.i (Real Real Real Real) Bool)
(assert |cp-rel-entry|)
(assert (forall ((?A Real) (?B Real) (?C Real) (?D Real) (?E Bool) )(let (($x214027 (and |cp-rel-entry| (<= ?D 0.0) (>= ?C 1.0) (<= ?C 1.0) (>= ?B 1.0) (<= ?B 1.0) (>= ?A 0.0) (<= ?A 0.0) (= ?E true) (>= ?D 0.0))))
(=> $x214027 (|cp-rel-bb1.i.i| ?A ?B ?C ?D))))
)
(assert (forall ((?A Real) (?B Real) (?C Real) (?D Real) (?E Real) (?F Real) (?G Real) (?H Real) (?I Bool) (?J Bool) (?K Bool) (?L Bool) (?M Bool) (?N Bool) (?O Real) (?P Real) (?Q Bool) (?R Bool) (?S Bool) (?T Bool) (?U Bool) (?V Bool) (?W Real) (?X Real) (?Y Bool) (?Z Bool) (?A1 Bool) (?B1 Bool) (?C1 Bool) (?D1 Bool) (?E1 Bool) (?F1 Real) (?G1 Bool) (?H1 Bool) (?I1 Bool) (?J1 Bool) (?K1 Bool) (?L1 Bool) (?M1 Real) (?N1 Real) (?O1 Bool) (?P1 Bool) (?Q1 Bool) (?R1 Bool) (?S1 Bool) (?T1 Bool) (?U1 Bool) (?V1 Bool) (?W1 Bool) (?X1 Bool) (?Y1 Bool) (?Z1 Bool) (?A2 Bool) (?B2 Bool) (?C2 Bool) (?D2 Bool) (?E2 Real) (?F2 Real) (?G2 Real) (?H2 Real) (?I2 Bool) (?J2 Bool) (?K2 Bool) (?L2 Bool) (?M2 Bool) (?N2 Bool) (?O2 Real) (?P2 Bool) (?Q2 Real) (?R2 Real) (?S2 Bool) (?T2 Real) (?U2 Real) (?V2 Bool) (?W2 Real) (?X2 Bool) (?Y2 Bool) (?Z2 Bool) (?A3 Bool) (?B3 Bool) (?C3 Bool) (?D3 Bool) )(let (($x580299 (|cp-rel-bb1.i.i| ?E ?F ?G ?H)))
(let (($x384300 (= ?N2 (and ?D3 ?C3))))
(let (($x41763 (or (not ?I) (and ?J ?K (not ?L)))))
(let (($x845215 (or (not ?I) ?K)))
(let (($x261165 (not ?M)))
(let (($x126457 (or $x261165 (and ?I ?N (<= ?O ?P) (>= ?O ?P)) (and ?J ?Q ?L (<= ?O ?B) (>= ?O ?B)))))
(let (($x619133 (or $x261165 (and ?N (not ?Q)) (and ?Q (not ?N)))))
(let (($x201869 (or (not ?R) (and ?M ?S (not ?T)))))
(let (($x275076 (or (not ?R) ?S)))
(let (($x322554 (not ?U)))
(let (($x578039 (or $x322554 (and ?R ?V (<= ?W ?X) (>= ?W ?X)) (and ?M ?Y ?T (<= ?W ?A) (>= ?W ?A)))))
(let (($x369488 (or $x322554 (and ?V (not ?Y)) (and ?Y (not ?V)))))
(let (($x483190 (or (not ?Z) (and ?U ?A1 ?B1))))
(let (($x850487 (or (not ?Z) ?A1)))
(let (($x259532 (not ?C1)))
(let (($x789186 (or $x259532 (and ?Z ?D1 ?E1 (<= ?F1 ?C) (>= ?F1 ?C)) (and ?U ?G1 (not ?B1) (<= ?F1 1.0) (>= ?F1 1.0)))))
(let (($x277254 (or $x259532 (and ?D1 (not ?G1)) (and ?G1 (not ?D1)))))
(let (($x305571 (or (not ?H1) (and ?C1 ?I1 (not ?J1)))))
(let (($x143398 (or (not ?H1) ?I1)))
(let (($x859467 (or (not ?K1) (and ?H1 ?L1 (<= ?M1 ?N1) (>= ?M1 ?N1)) (and ?C1 ?O1 ?J1 (<= ?M1 ?O) (>= ?M1 ?O)))))
(let (($x509533 (or (not ?K1) (and ?L1 (not ?O1)) (and ?O1 (not ?L1)))))
(let (($x473631 (or (not ?P1) (and ?K1 ?Q1 (not ?R1)))))
(let (($x505126 (or (not ?P1) ?Q1)))
(let (($x865456 (or (not ?S1) (and ?P1 ?T1 ?J1))))
(let (($x558581 (or (not ?S1) ?T1)))
(let (($x96112 (or (not ?U1) (and ?P1 ?V1 (not ?J1)))))
(let (($x924429 (or (not ?U1) ?V1)))
(let (($x27743 (or (not ?W1) (and ?S1 ?X1 ?Y1))))
(let (($x439880 (or (not ?W1) ?X1)))
(let (($x539954 (or (not ?Z1) (and ?U1 ?A2 ?B2))))
(let (($x214905 (or (not ?Z1) ?A2)))
(let (($x366123 (and ?Z ?M2 (not ?E1) (<= ?E2 0.0) (>= ?E2 0.0) (<= ?F2 ?O) (>= ?F2 ?O) (<= ?G2 0.0) (>= ?G2 0.0))))
(let (($x129787 (>= ?G2 ?D)))
(let (($x533062 (<= ?G2 ?D)))
(let (($x594114 (>= ?F2 ?M1)))
(let (($x596879 (<= ?F2 ?M1)))
(let (($x45182 (>= ?E2 ?F1)))
(let (($x197485 (<= ?E2 ?F1)))
(let (($x119736 (and ?U1 ?K2 (not ?B2) $x197485 $x45182 $x596879 $x594114 (<= ?G2 0.0) (>= ?G2 0.0))))
(let (($x476668 (not ?C2)))
(let (($x67017 (or $x476668 (and ?W1 ?D2 $x197485 $x45182 $x596879 $x594114 (<= ?G2 ?H2) (>= ?G2 ?H2)) (and ?S1 ?I2 (not ?Y1) $x197485 $x45182 $x596879 $x594114 $x533062 $x129787) (and ?Z1 ?J2 $x197485 $x45182 $x596879 $x594114 $x533062 $x129787) $x119736 (and ?K1 ?L2 ?R1 $x197485 $x45182 $x596879 $x594114 $x533062 $x129787) $x366123)))
(let (($x501976 (or $x476668 (and ?D2 (not ?I2) (not ?J2) (not ?K2) (not ?L2) (not ?M2)) (and ?I2 (not ?D2) (not ?J2) (not ?K2) (not ?L2) (not ?M2)) (and ?J2 (not ?D2) (not ?I2) (not ?K2) (not ?L2) (not ?M2)) (and ?K2 (not ?D2) (not ?I2) (not ?J2) (not ?L2) (not ?M2)) (and ?L2 (not ?D2) (not ?I2) (not ?J2) (not ?K2) (not ?M2)) (and ?M2 (not ?D2) (not ?I2) (not ?J2) (not ?K2) (not ?L2)))))
(let (($x550 (= ?C2 true)))
(let (($x386357 (= ?L (= ?O2 0.0))))
(let (($x2982 (= ?Q2 (ite ?P2 1.0 0.0))))
(let (($x240530 (= ?T (= ?R2 0.0))))
(let (($x355930 (= ?X (ite ?S2 1.0 0.0))))
(let (($x29066 (= ?B1 (= ?T2 0.0))))
(let (($x82040 (= ?E1 (= ?U2 0.0))))
(let (($x264399 (= ?V2 (not (<= ?O 0.0)))))
(let (($x280350 (= ?W2 (+ (~ 1.0) ?O))))
(let (($x404382 (= ?N1 (ite ?V2 ?W2 ?O))))
(let (($x441254 (= ?R1 (= ?F1 0.0))))
(let (($x104903 (= ?Y1 (not (<= ?M1 1.0)))))
(let (($x599261 (= ?W 0.0)))
(let (($x165161 (= ?X2 $x599261)))
(let (($x259710 (= ?Y2 (= ?M1 0.0))))
(let (($x235628 (= ?B2 (and ?X2 ?Y2))))
(let (($x505189 (= ?Z2 $x599261)))
(let (($x173801 (= ?A3 $x599261)))
(let (($x178339 (= ?B3 (= ?F2 2.0))))
(let (($x512274 (= ?C3 (= ?G2 0.0))))
(let (($x449877 (= ?D3 (and ?B3 ?A3))))
(let (($x623034 (and (|cp-rel-bb1.i.i| ?A ?B ?C ?D) $x449877 $x512274 $x178339 $x173801 (= ?H2 (ite ?Z2 1.0 ?D)) $x505189 $x235628 $x259710 $x165161 $x104903 $x441254 $x404382 $x280350 $x264399 (= ?J1 (= ?D 0.0)) $x82040 $x29066 $x355930 (= ?S2 (= ?A 0.0)) $x240530 (= ?P (+ ?Q2 ?B)) $x2982 (= ?P2 (not (<= 2.0 ?B))) $x386357 (>= ?H ?G2) (<= ?H ?G2) (>= ?G ?E2) (<= ?G ?E2) (>= ?F ?F2) (<= ?F ?F2) (>= ?E ?W) (<= ?E ?W) (not (= ?N2 true)) $x550 $x501976 $x67017 $x214905 $x539954 $x439880 $x27743 $x924429 $x96112 $x558581 $x865456 $x505126 $x473631 $x509533 $x859467 $x143398 $x305571 $x277254 $x789186 $x850487 $x483190 $x369488 $x578039 $x275076 $x201869 $x619133 $x126457 $x845215 $x41763 $x384300)))
(=> $x623034 $x580299))))))))))))))))))))))))))))))))))))))))))))))))))))))))))))))))))
)
(assert (forall ((?A Real) (?B Real) (?C Real) (?D Real) (?E Bool) (?F Bool) (?G Bool) (?H Bool) (?I Bool) (?J Bool) (?K Real) (?L Real) (?M Bool) (?N Bool) (?O Bool) (?P Bool) (?Q Bool) (?R Bool) (?S Real) (?T Real) (?U Bool) (?V Bool) (?W Bool) (?X Bool) (?Y Bool) (?Z Bool) (?A1 Bool) (?B1 Real) (?C1 Bool) (?D1 Bool) (?E1 Bool) (?F1 Bool) (?G1 Bool) (?H1 Bool) (?I1 Real) (?J1 Real) (?K1 Bool) (?L1 Bool) (?M1 Bool) (?N1 Bool) (?O1 Bool) (?P1 Bool) (?Q1 Bool) (?R1 Bool) (?S1 Bool) (?T1 Bool) (?U1 Bool) (?V1 Bool) (?W1 Bool) (?X1 Bool) (?Y1 Bool) (?Z1 Bool) (?A2 Real) (?B2 Real) (?C2 Real) (?D2 Real) (?E2 Bool) (?F2 Bool) (?G2 Bool) (?H2 Bool) (?I2 Bool) (?J2 Bool) (?K2 Real) (?L2 Bool) (?M2 Real) (?N2 Real) (?O2 Bool) (?P2 Real) (?Q2 Real) (?R2 Bool) (?S2 Real) (?T2 Bool) (?U2 Bool) (?V2 Bool) (?W2 Bool) (?X2 Bool) (?Y2 Bool) (?Z2 Bool) )(let (($x384300 (= ?J2 (and ?Z2 ?Y2))))
(let (($x41763 (or (not ?E) (and ?F ?G (not ?H)))))
(let (($x845215 (or (not ?E) ?G)))
(let (($x261165 (not ?I)))
(let (($x156436 (or $x261165 (and ?E ?J (<= ?K ?L) (>= ?K ?L)) (and ?F ?M ?H (<= ?K ?B) (>= ?K ?B)))))
(let (($x619133 (or $x261165 (and ?J (not ?M)) (and ?M (not ?J)))))
(let (($x201869 (or (not ?N) (and ?I ?O (not ?P)))))
(let (($x275076 (or (not ?N) ?O)))
(let (($x322554 (not ?Q)))
(let (($x343538 (or $x322554 (and ?N ?R (<= ?S ?T) (>= ?S ?T)) (and ?I ?U ?P (<= ?S ?A) (>= ?S ?A)))))
(let (($x369488 (or $x322554 (and ?R (not ?U)) (and ?U (not ?R)))))
(let (($x483190 (or (not ?V) (and ?Q ?W ?X))))
(let (($x850487 (or (not ?V) ?W)))
(let (($x259532 (not ?Y)))
(let (($x152650 (or $x259532 (and ?V ?Z ?A1 (<= ?B1 ?C) (>= ?B1 ?C)) (and ?Q ?C1 (not ?X) (<= ?B1 1.0) (>= ?B1 1.0)))))
(let (($x277254 (or $x259532 (and ?Z (not ?C1)) (and ?C1 (not ?Z)))))
(let (($x305571 (or (not ?D1) (and ?Y ?E1 (not ?F1)))))
(let (($x143398 (or (not ?D1) ?E1)))
(let (($x859467 (or (not ?G1) (and ?D1 ?H1 (<= ?I1 ?J1) (>= ?I1 ?J1)) (and ?Y ?K1 ?F1 (<= ?I1 ?K) (>= ?I1 ?K)))))
(let (($x509533 (or (not ?G1) (and ?H1 (not ?K1)) (and ?K1 (not ?H1)))))
(let (($x473631 (or (not ?L1) (and ?G1 ?M1 (not ?N1)))))
(let (($x505126 (or (not ?L1) ?M1)))
(let (($x865456 (or (not ?O1) (and ?L1 ?P1 ?F1))))
(let (($x558581 (or (not ?O1) ?P1)))
(let (($x96112 (or (not ?Q1) (and ?L1 ?R1 (not ?F1)))))
(let (($x924429 (or (not ?Q1) ?R1)))
(let (($x27743 (or (not ?S1) (and ?O1 ?T1 ?U1))))
(let (($x439880 (or (not ?S1) ?T1)))
(let (($x539954 (or (not ?V1) (and ?Q1 ?W1 ?X1))))
(let (($x214905 (or (not ?V1) ?W1)))
(let (($x366123 (and ?V ?I2 (not ?A1) (<= ?A2 0.0) (>= ?A2 0.0) (<= ?B2 ?K) (>= ?B2 ?K) (<= ?C2 0.0) (>= ?C2 0.0))))
(let (($x582527 (>= ?C2 ?D)))
(let (($x887716 (<= ?C2 ?D)))
(let (($x594114 (>= ?B2 ?I1)))
(let (($x596879 (<= ?B2 ?I1)))
(let (($x45182 (>= ?A2 ?B1)))
(let (($x197485 (<= ?A2 ?B1)))
(let (($x119736 (and ?Q1 ?G2 (not ?X1) $x197485 $x45182 $x596879 $x594114 (<= ?C2 0.0) (>= ?C2 0.0))))
(let (($x476668 (not ?Y1)))
(let (($x54957 (or $x476668 (and ?S1 ?Z1 $x197485 $x45182 $x596879 $x594114 (<= ?C2 ?D2) (>= ?C2 ?D2)) (and ?O1 ?E2 (not ?U1) $x197485 $x45182 $x596879 $x594114 $x887716 $x582527) (and ?V1 ?F2 $x197485 $x45182 $x596879 $x594114 $x887716 $x582527) $x119736 (and ?G1 ?H2 ?N1 $x197485 $x45182 $x596879 $x594114 $x887716 $x582527) $x366123)))
(let (($x501976 (or $x476668 (and ?Z1 (not ?E2) (not ?F2) (not ?G2) (not ?H2) (not ?I2)) (and ?E2 (not ?Z1) (not ?F2) (not ?G2) (not ?H2) (not ?I2)) (and ?F2 (not ?Z1) (not ?E2) (not ?G2) (not ?H2) (not ?I2)) (and ?G2 (not ?Z1) (not ?E2) (not ?F2) (not ?H2) (not ?I2)) (and ?H2 (not ?Z1) (not ?E2) (not ?F2) (not ?G2) (not ?I2)) (and ?I2 (not ?Z1) (not ?E2) (not ?F2) (not ?G2) (not ?H2)))))
(let (($x550 (= ?Y1 true)))
(let (($x244912 (= ?J2 true)))
(let (($x386357 (= ?H (= ?K2 0.0))))
(let (($x2982 (= ?M2 (ite ?L2 1.0 0.0))))
(let (($x240530 (= ?P (= ?N2 0.0))))
(let (($x355930 (= ?T (ite ?O2 1.0 0.0))))
(let (($x29066 (= ?X (= ?P2 0.0))))
(let (($x82040 (= ?A1 (= ?Q2 0.0))))
(let (($x264399 (= ?R2 (not (<= ?K 0.0)))))
(let (($x280350 (= ?S2 (+ (~ 1.0) ?K))))
(let (($x404382 (= ?J1 (ite ?R2 ?S2 ?K))))
(let (($x441254 (= ?N1 (= ?B1 0.0))))
(let (($x104903 (= ?U1 (not (<= ?I1 1.0)))))
(let (($x599261 (= ?S 0.0)))
(let (($x165161 (= ?T2 $x599261)))
(let (($x259710 (= ?U2 (= ?I1 0.0))))
(let (($x235628 (= ?X1 (and ?T2 ?U2))))
(let (($x505189 (= ?V2 $x599261)))
(let (($x173801 (= ?W2 $x599261)))
(let (($x178339 (= ?X2 (= ?B2 2.0))))
(let (($x512274 (= ?Y2 (= ?C2 0.0))))
(let (($x449877 (= ?Z2 (and ?X2 ?W2))))
(let (($x580299 (|cp-rel-bb1.i.i| ?A ?B ?C ?D)))
(let (($x811286 (and $x580299 $x449877 $x512274 $x178339 $x173801 (= ?D2 (ite ?V2 1.0 ?D)) $x505189 $x235628 $x259710 $x165161 $x104903 $x441254 $x404382 $x280350 $x264399 (= ?F1 (= ?D 0.0)) $x82040 $x29066 $x355930 (= ?O2 (= ?A 0.0)) $x240530 (= ?L (+ ?M2 ?B)) $x2982 (= ?L2 (not (<= 2.0 ?B))) $x386357 $x244912 $x550 $x501976 $x54957 $x214905 $x539954 $x439880 $x27743 $x924429 $x96112 $x558581 $x865456 $x505126 $x473631 $x509533 $x859467 $x143398 $x305571 $x277254 $x152650 $x850487 $x483190 $x369488 $x343538 $x275076 $x201869 $x619133 $x156436 $x845215 $x41763 $x384300)))
(=> $x811286 |cp-rel-bb2.i.i43.i.i|)))))))))))))))))))))))))))))))))))))))))))))))))))))))))))))))))))
)
(assert (not cp-rel-bb2.i.i43.i.i))
(check-sat)
